90
1612
10
1
89
65
33
76
15
91
98
13
11
0 2
0 6
0 9
0 11
0 13
0 16
0 20
0 23
0 24
0 26
0 28
0 30
0 32
0 34
0 35
0 36
0 41
0 45
0 48
0 49
0 52
0 53
0 55
0 56
0 57
0 63
0 65
0 70
0 72
0 78
0 80
0 82
0 87
1 5
1 10
1 11
1 12
1 26
1 31
1 33
1 34
1 36
1 37
1 38
1 40
1 41
1 42
1 44
1 46
1 48
1 49
1 50
1 53
1 54
1 57
1 58
1 61
1 63
1 64
1 65
1 68
1 70
1 71
1 72
1 73
1 74
1 76
1 77
1 81
1 82
1 83
1 84
1 85
2 5
2 6
2 8
2 9
2 10
2 13
2 14
2 16
2 18
2 21
2 24
2 29
2 31
2 36
2 37
2 38
2 48
2 54
2 55
2 60
2 61
2 63
2 70
2 71
2 73
2 77
2 78
2 79
2 80
2 81
2 83
2 86
2 89
3 4
3 10
3 12
3 23
3 25
3 28
3 29
3 31
3 37
3 42
3 43
3 46
3 51
3 52
3 53
3 58
3 59
3 61
3 62
3 68
3 69
3 70
3 72
3 73
3 74
3 75
3 76
3 77
3 80
3 81
3 82
3 84
3 87
4 7
4 9
4 17
4 20
4 25
4 27
4 28
4 29
4 35
4 36
4 37
4 39
4 44
4 46
4 49
4 50
4 51
4 53
4 55
4 56
4 57
4 58
4 60
4 61
4 62
4 65
4 67
4 71
4 72
4 75
4 76
4 82
4 85
4 86
4 87
4 88
5 6
5 7
5 11
5 13
5 14
5 15
5 16
5 20
5 23
5 24
5 33
5 38
5 42
5 44
5 49
5 50
5 55
5 58
5 62
5 64
5 66
5 68
5 69
5 71
5 74
5 75
5 76
5 78
5 80
5 83
5 87
5 89
6 7
6 10
6 11
6 12
6 13
6 14
6 19
6 22
6 23
6 26
6 28
6 29
6 33
6 34
6 37
6 40
6 42
6 44
6 45
6 48
6 49
6 56
6 58
6 63
6 69
6 70
6 71
6 72
6 74
6 75
6 78
6 82
6 83
6 85
6 86
6 87
6 89
7 10
7 12
7 18
7 20
7 31
7 32
7 33
7 36
7 43
7 44
7 45
7 46
7 47
7 52
7 54
7 56
7 57
7 58
7 60
7 61
7 62
7 63
7 65
7 66
7 67
7 69
7 70
7 78
7 79
7 84
7 85
7 88
7 89
8 9
8 12
8 13
8 14
8 18
8 20
8 22
8 35
8 36
8 39
8 40
8 43
8 45
8 51
8 54
8 55
8 56
8 59
8 62
8 63
8 65
8 66
8 67
8 69
8 70
8 71
8 75
8 76
8 77
8 78
8 79
8 82
8 83
8 85
8 86
9 13
9 23
9 26
9 28
9 31
9 32
9 33
9 34
9 35
9 36
9 37
9 38
9 39
9 41
9 42
9 46
9 51
9 53
9 56
9 57
9 59
9 61
9 62
9 63
9 68
9 69
9 72
9 77
9 79
9 80
9 81
9 84
9 85
9 88
10 12
10 15
10 17
10 20
10 21
10 27
10 29
10 32
10 34
10 37
10 41
10 47
10 52
10 57
10 58
10 60
10 62
10 63
10 64
10 66
10 68
10 71
10 76
10 77
10 84
10 87
10 88
10 89
11 12
11 14
11 22
11 27
11 34
11 36
11 47
11 54
11 55
11 57
11 58
11 62
11 65
11 66
11 67
11 68
11 69
11 70
11 71
11 77
11 79
11 83
11 87
11 88
12 13
12 14
12 18
12 19
12 20
12 21
12 24
12 25
12 27
12 28
12 29
12 30
12 34
12 36
12 43
12 44
12 45
12 46
12 50
12 52
12 60
12 62
12 63
12 65
12 69
12 70
12 74
12 77
12 78
12 80
12 84
12 85
12 86
12 87
12 88
12 89
13 14
13 15
13 16
13 21
13 22
13 27
13 28
13 35
13 40
13 45
13 48
13 53
13 55
13 58
13 64
13 65
13 67
13 69
13 74
13 79
13 84
13 86
14 15
14 17
14 23
14 24
14 25
14 26
14 27
14 32
14 34
14 37
14 40
14 42
14 43
14 47
14 48
14 49
14 50
14 52
14 55
14 59
14 60
14 61
14 66
14 67
14 68
14 69
14 70
14 74
14 76
14 78
14 80
14 81
14 82
14 83
14 87
15 21
15 25
15 35
15 36
15 37
15 39
15 41
15 43
15 45
15 46
15 52
15 53
15 57
15 58
15 60
15 61
15 66
15 70
15 71
15 73
15 74
15 75
15 78
15 82
15 84
15 86
15 87
16 21
16 24
16 25
16 27
16 28
16 32
16 33
16 35
16 36
16 37
16 38
16 39
16 43
16 44
16 45
16 48
16 50
16 51
16 58
16 61
16 65
16 66
16 67
16 68
16 71
16 73
16 77
16 84
16 87
17 22
17 28
17 30
17 31
17 32
17 34
17 35
17 37
17 38
17 42
17 45
17 49
17 51
17 54
17 56
17 57
17 59
17 64
17 65
17 72
17 73
17 78
17 83
17 87
18 20
18 22
18 24
18 25
18 26
18 28
18 29
18 30
18 31
18 40
18 41
18 43
18 44
18 45
18 48
18 52
18 53
18 55
18 56
18 57
18 61
18 63
18 67
18 71
18 72
18 75
18 78
18 79
18 80
18 84
18 85
18 89
19 22
19 30
19 31
19 32
19 34
19 35
19 36
19 37
19 38
19 40
19 44
19 45
19 46
19 48
19 49
19 51
19 52
19 53
19 63
19 68
19 73
19 74
19 76
19 77
19 78
19 79
19 81
19 84
20 22
20 25
20 26
20 38
20 41
20 48
20 49
20 52
20 53
20 56
20 59
20 62
20 63
20 70
20 71
20 72
20 75
20 76
20 80
20 84
20 87
20 89
21 23
21 25
21 28
21 31
21 33
21 35
21 36
21 39
21 40
21 41
21 42
21 43
21 45
21 46
21 47
21 50
21 51
21 55
21 56
21 57
21 59
21 61
21 62
21 63
21 66
21 68
21 70
21 71
21 73
21 75
21 76
21 79
21 80
21 81
21 82
21 83
21 84
21 88
21 89
22 27
22 31
22 32
22 34
22 39
22 42
22 44
22 46
22 49
22 50
22 55
22 57
22 62
22 66
22 68
22 69
22 74
22 75
22 78
22 81
22 83
22 84
22 88
23 26
23 29
23 30
23 37
23 39
23 45
23 48
23 50
23 51
23 53
23 57
23 60
23 61
23 62
23 64
23 68
23 69
23 70
23 71
23 74
23 77
23 79
23 84
23 85
23 86
23 89
24 27
24 28
24 30
24 31
24 35
24 37
24 38
24 40
24 42
24 46
24 48
24 52
24 54
24 58
24 60
24 61
24 62
24 64
24 67
24 73
24 76
24 78
24 79
24 80
24 81
24 88
24 89
25 26
25 29
25 30
25 31
25 33
25 35
25 41
25 44
25 46
25 49
25 52
25 54
25 57
25 60
25 71
25 79
25 80
25 84
25 86
26 27
26 28
26 30
26 36
26 37
26 38
26 40
26 46
26 47
26 49
26 50
26 52
26 55
26 57
26 58
26 60
26 61
26 62
26 64
26 65
26 67
26 69
26 70
26 71
26 75
26 76
26 79
26 80
26 83
26 84
26 88
26 89
27 30
27 35
27 36
27 38
27 39
27 40
27 41
27 44
27 45
27 50
27 52
27 54
27 56
27 61
27 63
27 66
27 74
27 75
27 76
27 79
27 80
27 81
27 82
27 83
27 84
27 85
27 89
28 32
28 33
28 35
28 36
28 37
28 39
28 41
28 42
28 45
28 47
28 48
28 49
28 51
28 55
28 59
28 62
28 65
28 70
28 74
28 75
28 77
28 81
28 84
28 85
28 86
28 88
29 31
29 35
29 36
29 38
29 40
29 42
29 45
29 46
29 47
29 52
29 53
29 54
29 59
29 65
29 72
29 80
29 83
29 85
29 88
30 31
30 35
30 37
30 38
30 40
30 41
30 43
30 49
30 50
30 52
30 57
30 59
30 63
30 64
30 66
30 67
30 68
30 69
30 76
30 77
30 78
30 81
30 83
30 84
30 86
30 89
31 34
31 44
31 45
31 46
31 49
31 53
31 56
31 57
31 58
31 60
31 67
31 71
31 72
31 73
31 74
31 76
31 77
31 80
31 81
31 82
31 83
31 84
31 85
31 87
32 34
32 38
32 39
32 41
32 42
32 47
32 48
32 53
32 58
32 61
32 62
32 63
32 65
32 67
32 68
32 70
32 73
32 74
32 75
32 77
32 80
32 81
32 83
32 84
32 85
32 87
33 37
33 38
33 39
33 44
33 52
33 60
33 62
33 64
33 66
33 69
33 73
33 74
33 75
33 76
33 77
33 79
33 81
33 82
33 83
33 84
33 85
33 89
34 35
34 38
34 41
34 42
34 43
34 44
34 45
34 46
34 48
34 50
34 53
34 57
34 58
34 59
34 61
34 63
34 68
34 70
34 71
34 73
34 75
34 77
34 78
34 79
34 82
34 83
34 85
34 88
35 38
35 43
35 44
35 46
35 48
35 49
35 50
35 56
35 60
35 63
35 70
35 72
35 73
35 75
35 78
35 79
35 83
35 86
35 87
35 88
36 39
36 40
36 41
36 50
36 52
36 56
36 64
36 66
36 67
36 68
36 74
36 76
36 78
36 80
36 81
36 82
36 83
37 38
37 39
37 41
37 43
37 44
37 52
37 54
37 55
37 63
37 64
37 70
37 72
37 75
37 76
37 77
37 82
38 39
38 42
38 43
38 44
38 47
38 48
38 49
38 50
38 51
38 52
38 55
38 57
38 58
38 66
38 70
38 72
38 75
38 79
38 80
38 82
38 85
38 88
39 40
39 41
39 42
39 46
39 49
39 52
39 53
39 57
39 58
39 61
39 63
39 69
39 76
39 77
39 79
39 81
39 82
39 83
39 88
40 43
40 44
40 45
40 46
40 47
40 50
40 52
40 56
40 62
40 63
40 64
40 66
40 68
40 69
40 74
40 77
40 78
40 81
40 85
40 86
40 87
40 88
40 89
41 44
41 46
41 49
41 50
41 51
41 56
41 58
41 59
41 60
41 64
41 67
41 68
41 70
41 72
41 73
41 80
41 88
41 89
42 46
42 47
42 48
42 49
42 52
42 53
42 56
42 59
42 61
42 65
42 66
42 67
42 69
42 70
42 71
42 72
42 79
42 84
42 85
42 86
42 87
43 46
43 48
43 49
43 58
43 60
43 61
43 62
43 63
43 65
43 68
43 73
43 76
43 77
43 78
43 80
43 81
43 82
43 83
43 84
43 85
43 88
44 46
44 47
44 50
44 52
44 54
44 56
44 57
44 59
44 62
44 66
44 69
44 70
44 72
44 74
44 77
44 78
44 82
44 83
44 88
45 48
45 49
45 53
45 55
45 58
45 60
45 61
45 64
45 65
45 66
45 68
45 71
45 76
45 79
45 82
45 84
45 85
45 88
46 47
46 48
46 49
46 51
46 52
46 58
46 61
46 64
46 66
46 71
46 72
46 73
46 74
46 75
46 84
46 87
47 49
47 51
47 56
47 57
47 60
47 64
47 66
47 67
47 69
47 73
47 75
47 77
47 78
47 80
47 82
47 88
48 51
48 52
48 53
48 54
48 55
48 57
48 63
48 65
48 66
48 67
48 69
48 72
48 76
48 79
48 81
49 51
49 52
49 54
49 56
49 57
49 60
49 62
49 64
49 65
49 70
49 77
49 81
49 82
49 83
49 84
49 85
50 51
50 55
50 58
50 61
50 62
50 64
50 65
50 66
50 70
50 71
50 73
50 74
50 77
50 78
50 83
50 86
51 54
51 55
51 59
51 61
51 62
51 64
51 66
51 68
51 69
51 70
51 73
51 78
51 82
51 84
51 86
52 53
52 55
52 57
52 59
52 69
52 70
52 71
52 72
52 76
52 80
52 81
52 82
52 83
52 85
52 87
53 57
53 58
53 59
53 60
53 63
53 68
53 69
53 70
53 71
53 73
53 75
53 78
53 80
53 81
53 82
53 83
53 88
54 58
54 59
54 60
54 63
54 64
54 65
54 67
54 68
54 71
54 75
54 77
54 78
54 80
54 81
54 83
54 88
55 59
55 60
55 61
55 66
55 71
55 72
55 74
55 77
55 78
55 79
55 81
55 83
55 89
56 57
56 63
56 70
56 71
56 73
56 74
56 76
56 83
56 86
56 88
57 60
57 62
57 69
57 70
57 71
57 72
57 74
57 77
57 78
57 85
58 59
58 60
58 62
58 65
58 66
58 67
58 72
58 76
58 77
58 78
58 79
58 81
58 82
58 83
58 84
58 86
58 87
59 60
59 61
59 62
59 64
59 68
59 70
59 77
59 80
59 82
59 89
60 66
60 69
60 75
60 77
60 78
60 80
60 82
60 83
60 87
61 62
61 63
61 67
61 69
61 72
61 75
61 77
61 78
61 83
61 86
61 87
61 89
62 65
62 70
62 71
62 74
62 75
62 76
62 77
62 83
62 85
62 87
62 89
63 70
63 72
63 74
63 75
63 76
63 77
63 78
63 80
63 81
63 82
63 86
63 87
63 88
64 66
64 67
64 68
64 69
64 70
64 83
64 85
65 69
65 70
65 71
65 75
65 78
65 80
65 81
65 84
65 85
65 88
66 68
66 71
66 74
66 75
66 77
66 78
66 80
66 81
66 85
66 86
66 87
66 88
67 72
67 73
67 74
67 77
67 78
67 82
67 87
67 88
68 69
68 70
68 75
68 76
68 77
68 78
68 79
68 80
68 81
68 84
69 70
69 77
69 79
69 81
69 85
69 86
69 87
70 72
70 78
70 79
70 80
70 84
70 85
70 87
70 88
71 78
71 84
71 85
72 74
72 77
72 79
72 84
72 85
72 86
72 87
73 74
73 77
73 78
73 85
73 88
73 89
74 76
74 77
74 78
74 79
74 80
74 81
74 83
74 84
74 85
75 76
75 77
75 81
75 82
75 84
75 87
76 78
76 80
76 81
76 82
76 83
76 85
77 78
77 79
77 84
77 86
77 87
78 79
78 81
78 82
78 85
78 88
78 89
79 80
79 82
79 87
79 88
79 89
80 84
80 88
80 89
81 84
81 86
81 87
81 89
82 87
82 89
83 85
83 86
83 88
84 85
84 86
84 87
84 89
86 87
87 88
87 89
45 32 77 28 23 58 4 67 42
57 53 18 54 61 71 39 78 49
64 82 86 84 66 44 72 52 24
43 2 73 20 26 11 69 76 12
16 29 70 31 56 47 13 85 59
25 79 38 1 46 40 83 6 65
89 36 81 74 30 15 35 55 63
34 17 9 48 7 14 68 19 41
22 87 21 0 62 8 88 51 27
37 60 5 10 50 80 33 75 3
